c turning on binary mode checking
c parsing input formula with 259840 variables and 1039924 clauses
c finished parsing, read 3053120 bytes from proof file
c detected empty clause; start verification via backward checking
c 3319 of 1039924 clauses in core                            
c 1125 of 120956 lemmas in core using 34041 resolution steps
c 0 RAT lemmas in core; 273 redundant literals in core lemmas
s VERIFIED
c verification time: 1.212 seconds
